BAYES
441
3 3 3 3 3 3 3 3 3 3 3 3 3 3 3 3 3 3 3 3 3 3 3 3 3 3 3 3 3 3 3 3 3 3 3 3 3 3 3 3 3 3 3 3 3 3 3 3 3 3 3 3 3 3 3 3 3 3 3 3 3 3 3 3 3 3 3 3 3 3 3 3 3 3 3 3 3 3 3 3 3 3 3 3 3 3 3 3 3 3 3 3 3 3 3 3 3 3 3 3 3 3 3 3 3 3 3 3 3 3 3 3 3 3 3 3 3 3 3 3 3 3 3 3 3 3 3 3 3 3 3 3 3 3 3 3 3 3 3 3 3 3 3 3 3 3 3 3 3 3 3 3 3 3 3 3 3 3 3 3 3 3 3 3 3 3 3 3 3 3 3 3 3 3 3 3 3 3 3 3 3 3 3 3 3 3 3 3 3 3 3 3 3 3 3 3 3 3 3 3 3 3 3 3 3 3 3 3 3 3 3 3 3 3 3 3 3 3 3 3 3 3 3 3 3 3 3 3 3 3 3 3 3 3 3 3 3 3 3 3 3 3 3 3 3 3 3 3 3 3 3 3 3 3 3 3 3 3 3 3 3 3 3 3 3 3 3 3 3 3 3 3 3 3 3 3 3 3 3 3 3 3 3 3 3 3 3 3 3 3 3 3 3 3 3 3 3 3 3 3 3 3 3 3 3 3 3 3 3 3 3 3 3 3 3 3 3 3 3 3 3 3 3 3 3 3 3 3 3 3 3 3 3 3 3 3 3 3 3 3 3 3 3 3 3 3 3 3 3 3 3 3 3 3 3 3 3 3 3 3 3 3 3 3 3 3 3 3 3 3 3 3 3 3 3 3 3 3 3 3 3 3 3 3 3 3 3 3 3 3 3 3 3 3 3 3 3 3 3 3 3 3 3 3 3 3 3 3 3 3 3 3 3 3 3 3 3 3 3 3 3 3 3 3 3 3 3 3 3 3 3 3 3 3 3 3 3 3 3 3 3 
441
1 0
1 1
1 2
3 1 2 3
3 3 0 4
1 5
3 1 5 6
1 7
3 1 7 8
1 9
1 10
1 11
3 10 11 12
3 9 12 13
1 14
3 13 14 15
1 16
1 17
3 16 17 18
3 15 18 19
3 15 18 20
1 21
1 22
3 21 22 23
1 24
3 13 24 25
3 23 25 26
3 23 25 27
1 28
1 29
3 13 29 30
3 28 30 31
3 28 30 32
1 33
3 13 33 34
3 28 34 35
1 36
1 37
1 38
1 39
3 38 39 40
3 37 40 41
3 41 36 42
1 43
1 44
3 43 44 45
3 43 44 46
1 47
3 37 47 48
3 43 48 49
1 50
1 51
3 50 51 52
3 13 52 53
1 54
3 37 54 55
3 53 55 56
1 57
3 37 57 58
3 56 58 59
1 60
3 37 60 61
3 56 61 62
1 63
3 50 63 64
1 65
3 64 65 66
1 67
3 13 67 68
3 66 68 69
3 66 68 70
1 71
3 50 51 72
1 73
3 9 73 74
1 75
3 74 75 76
3 72 76 77
3 71 77 78
1 79
1 80
3 79 80 81
1 82
1 83
3 82 83 84
3 13 84 85
3 81 85 86
3 81 85 87
1 88
3 38 88 89
3 74 89 90
3 90 85 91
1 92
3 13 40 93
3 92 93 94
1 95
1 96
3 96 39 97
3 37 97 98
3 98 95 99
1 100
3 98 100 101
3 98 100 102
1 103
3 96 103 104
1 105
3 96 105 106
1 107
3 96 107 108
3 37 108 109
3 37 108 110
3 56 110 111
1 112
3 37 112 113
1 114
3 114 113 115
1 116
1 117
3 117 116 118
3 114 118 119
1 120
3 114 120 121
3 114 120 122
1 123
1 124
3 123 124 125
3 114 125 126
3 114 125 127
1 128
1 129
3 128 129 130
3 114 130 131
3 114 130 132
1 133
3 9 133 134
1 135
1 136
3 135 136 137
3 134 137 138
1 139
3 13 139 140
3 138 140 141
1 142
1 143
3 128 143 144
3 142 144 145
3 41 145 146
3 141 146 147
3 13 144 148
3 141 148 149
1 150
3 13 150 151
3 138 151 152
3 138 151 153
1 154
1 155
3 154 155 156
3 138 156 157
3 138 156 158
3 138 156 159
3 138 156 160
3 138 156 161
3 138 156 162
1 163
1 164
3 163 164 165
3 13 165 166
1 167
3 96 167 168
1 169
3 13 169 170
3 168 170 171
3 166 171 172
3 13 165 173
3 13 165 174
3 168 174 175
3 166 175 176
3 13 165 177
3 166 171 178
3 13 139 179
3 138 179 180
3 138 140 181
3 138 140 182
3 13 139 183
3 138 183 184
3 37 54 185
3 185 170 186
3 186 184 187
1 188
3 188 97 189
3 185 189 190
1 191
3 191 54 192
3 41 192 193
3 41 192 194
3 191 54 195
3 53 195 196
3 53 195 197
1 198
1 199
3 199 167 200
3 198 200 201
1 202
3 168 202 203
3 138 203 204
1 205
1 206
3 37 206 207
3 13 205 208
3 207 208 209
3 207 208 210
1 211
1 212
3 211 212 213
3 134 213 214
3 210 214 215
1 216
3 134 216 217
1 218
1 219
3 218 219 220
1 221
3 134 221 222
3 220 222 223
1 224
1 225
3 224 225 226
3 223 226 227
3 224 225 228
3 223 228 229
3 223 226 230
1 231
3 13 231 232
1 233
1 234
3 233 234 235
3 232 235 236
3 232 235 237
1 238
1 239
3 238 239 240
1 241
3 240 241 242
3 114 242 243
3 114 242 244
1 245
3 37 245 246
1 247
3 238 247 248
3 248 246 249
1 250
3 248 250 251
3 56 251 252
1 253
1 254
3 253 254 255
3 240 255 256
3 37 97 257
3 13 255 258
3 258 257 259
3 13 255 260
1 261
1 262
3 261 262 263
1 264
3 13 264 265
3 263 265 266
3 266 260 267
3 232 235 268
3 266 268 269
3 266 268 270
1 271
1 272
3 271 272 273
3 271 272 274
3 13 137 275
3 275 274 276
3 134 137 277
1 278
3 9 133 279
3 278 279 280
3 277 280 281
1 282
3 278 279 283
3 282 283 284
3 282 283 285
3 282 280 286
1 287
3 233 234 288
3 287 288 289
3 289 286 290
3 287 288 291
1 292
1 293
3 293 292 294
3 293 2 295
3 287 295 296
3 287 288 297
3 13 231 298
3 233 234 299
3 298 299 300
3 233 234 301
3 134 221 302
3 302 301 303
1 304
1 305
3 218 305 306
3 41 306 307
3 304 307 308
3 304 307 309
1 310
3 218 310 311
3 278 279 312
1 313
1 314
3 313 314 315
3 312 315 316
3 316 311 317
3 312 315 318
3 312 315 319
3 312 315 320
1 321
1 322
3 321 322 323
3 323 320 324
3 278 279 325
3 323 325 326
3 278 279 327
1 328
3 13 328 329
1 330
3 278 330 331
3 329 331 332
3 13 328 333
3 90 333 334
3 90 333 335
3 329 331 336
1 337
3 278 337 338
1 339
1 340
3 339 340 341
1 342
1 343
3 342 343 344
3 341 344 345
1 346
3 346 279 347
3 345 347 348
1 349
3 13 349 350
1 351
3 345 351 352
3 350 352 353
1 354
1 355
3 354 355 356
3 345 356 357
3 354 355 358
1 359
3 13 359 360
3 358 360 361
3 345 356 362
3 345 347 363
3 41 279 364
1 365
1 366
3 365 366 367
3 13 367 368
1 369
1 370
3 369 370 371
3 368 371 372
3 364 372 373
1 374
1 375
3 374 375 376
3 368 376 377
3 368 376 378
1 379
1 380
3 379 380 381
1 382
3 381 382 383
3 381 382 384
1 385
3 381 385 386
3 13 367 387
3 387 386 388
1 389
3 389 366 390
3 134 390 391
3 364 372 392
1 393
3 128 393 394
3 13 394 395
3 141 395 396
3 114 130 397
1 398
3 37 398 399
3 114 399 400
3 114 399 401
3 114 399 402
1 403
3 37 403 404
3 114 404 405
3 37 403 406
3 13 231 407
3 407 406 408
3 37 108 409
3 232 409 410
3 9 73 411
3 41 411 412
3 41 411 413
3 13 73 414
3 13 73 415
1 416
3 1 416 417
1 418
3 418 417 419
3 1 359 420
3 418 420 421
3 50 51 422
3 13 422 423
3 421 423 424
3 56 58 425
1 426
3 37 426 427
1 428
3 13 428 429
3 427 429 430
3 427 429 431
3 13 428 432
3 427 432 433
1 434
3 13 434 435
3 427 435 436
1 437
3 9 437 438
3 41 438 439
3 9 437 440


3
 0.25 0.5 0.25

3
 0.25 0.5 0.25

3
 0.25 0.5 0.25

27
 1 0 0
 0.5 0.5 0
 0 1 0
 0.5 0.5 0
 0.25 0.5 0.25
 0 0.5 0.5
 0 1 0
 0 0.5 0.5
 0 0 1

27
 1 0 0
 0.5 0.5 0
 0 1 0
 0.5 0.5 0
 0.25 0.5 0.25
 0 0.5 0.5
 0 1 0
 0 0.5 0.5
 0 0 1

3
 0.25 0.5 0.25

27
 1 0 0
 0.5 0.5 0
 0 1 0
 0.5 0.5 0
 0.25 0.5 0.25
 0 0.5 0.5
 0 1 0
 0 0.5 0.5
 0 0 1

3
 0.25 0.5 0.25

27
 1 0 0
 0.5 0.5 0
 0 1 0
 0.5 0.5 0
 0.25 0.5 0.25
 0 0.5 0.5
 0 1 0
 0 0.5 0.5
 0 0 1

3
 0.25 0.5 0.25

3
 0.25 0.5 0.25

3
 0.25 0.5 0.25

27
 1 0 0
 0.5 0.5 0
 0 1 0
 0.5 0.5 0
 0.25 0.5 0.25
 0 0.5 0.5
 0 1 0
 0 0.5 0.5
 0 0 1

27
 1 0 0
 0.5 0.5 0
 0 1 0
 0.5 0.5 0
 0.25 0.5 0.25
 0 0.5 0.5
 0 1 0
 0 0.5 0.5
 0 0 1

3
 0.25 0.5 0.25

27
 1 0 0
 0.5 0.5 0
 0 1 0
 0.5 0.5 0
 0.25 0.5 0.25
 0 0.5 0.5
 0 1 0
 0 0.5 0.5
 0 0 1

3
 0.25 0.5 0.25

3
 0.25 0.5 0.25

27
 1 0 0
 0.5 0.5 0
 0 1 0
 0.5 0.5 0
 0.25 0.5 0.25
 0 0.5 0.5
 0 1 0
 0 0.5 0.5
 0 0 1

27
 1 0 0
 0.5 0.5 0
 0 1 0
 0.5 0.5 0
 0.25 0.5 0.25
 0 0.5 0.5
 0 1 0
 0 0.5 0.5
 0 0 1

27
 1 0 0
 0.5 0.5 0
 0 1 0
 0.5 0.5 0
 0.25 0.5 0.25
 0 0.5 0.5
 0 1 0
 0 0.5 0.5
 0 0 1

3
 0.25 0.5 0.25

3
 0.25 0.5 0.25

27
 1 0 0
 0.5 0.5 0
 0 1 0
 0.5 0.5 0
 0.25 0.5 0.25
 0 0.5 0.5
 0 1 0
 0 0.5 0.5
 0 0 1

3
 0.25 0.5 0.25

27
 1 0 0
 0.5 0.5 0
 0 1 0
 0.5 0.5 0
 0.25 0.5 0.25
 0 0.5 0.5
 0 1 0
 0 0.5 0.5
 0 0 1

27
 1 0 0
 0.5 0.5 0
 0 1 0
 0.5 0.5 0
 0.25 0.5 0.25
 0 0.5 0.5
 0 1 0
 0 0.5 0.5
 0 0 1

27
 1 0 0
 0.5 0.5 0
 0 1 0
 0.5 0.5 0
 0.25 0.5 0.25
 0 0.5 0.5
 0 1 0
 0 0.5 0.5
 0 0 1

3
 0.25 0.5 0.25

3
 0.25 0.5 0.25

27
 1 0 0
 0.5 0.5 0
 0 1 0
 0.5 0.5 0
 0.25 0.5 0.25
 0 0.5 0.5
 0 1 0
 0 0.5 0.5
 0 0 1

27
 1 0 0
 0.5 0.5 0
 0 1 0
 0.5 0.5 0
 0.25 0.5 0.25
 0 0.5 0.5
 0 1 0
 0 0.5 0.5
 0 0 1

27
 1 0 0
 0.5 0.5 0
 0 1 0
 0.5 0.5 0
 0.25 0.5 0.25
 0 0.5 0.5
 0 1 0
 0 0.5 0.5
 0 0 1

3
 0.25 0.5 0.25

27
 1 0 0
 0.5 0.5 0
 0 1 0
 0.5 0.5 0
 0.25 0.5 0.25
 0 0.5 0.5
 0 1 0
 0 0.5 0.5
 0 0 1

27
 1 0 0
 0.5 0.5 0
 0 1 0
 0.5 0.5 0
 0.25 0.5 0.25
 0 0.5 0.5
 0 1 0
 0 0.5 0.5
 0 0 1

3
 0.25 0.5 0.25

3
 0.25 0.5 0.25

3
 0.25 0.5 0.25

3
 0.25 0.5 0.25

27
 1 0 0
 0.5 0.5 0
 0 1 0
 0.5 0.5 0
 0.25 0.5 0.25
 0 0.5 0.5
 0 1 0
 0 0.5 0.5
 0 0 1

27
 1 0 0
 0.5 0.5 0
 0 1 0
 0.5 0.5 0
 0.25 0.5 0.25
 0 0.5 0.5
 0 1 0
 0 0.5 0.5
 0 0 1

27
 1 0 0
 0.5 0.5 0
 0 1 0
 0.5 0.5 0
 0.25 0.5 0.25
 0 0.5 0.5
 0 1 0
 0 0.5 0.5
 0 0 1

3
 0.25 0.5 0.25

3
 0.25 0.5 0.25

27
 1 0 0
 0.5 0.5 0
 0 1 0
 0.5 0.5 0
 0.25 0.5 0.25
 0 0.5 0.5
 0 1 0
 0 0.5 0.5
 0 0 1

27
 1 0 0
 0.5 0.5 0
 0 1 0
 0.5 0.5 0
 0.25 0.5 0.25
 0 0.5 0.5
 0 1 0
 0 0.5 0.5
 0 0 1

3
 0.25 0.5 0.25

27
 1 0 0
 0.5 0.5 0
 0 1 0
 0.5 0.5 0
 0.25 0.5 0.25
 0 0.5 0.5
 0 1 0
 0 0.5 0.5
 0 0 1

27
 1 0 0
 0.5 0.5 0
 0 1 0
 0.5 0.5 0
 0.25 0.5 0.25
 0 0.5 0.5
 0 1 0
 0 0.5 0.5
 0 0 1

3
 0.25 0.5 0.25

3
 0.25 0.5 0.25

27
 1 0 0
 0.5 0.5 0
 0 1 0
 0.5 0.5 0
 0.25 0.5 0.25
 0 0.5 0.5
 0 1 0
 0 0.5 0.5
 0 0 1

27
 1 0 0
 0.5 0.5 0
 0 1 0
 0.5 0.5 0
 0.25 0.5 0.25
 0 0.5 0.5
 0 1 0
 0 0.5 0.5
 0 0 1

3
 0.25 0.5 0.25

27
 1 0 0
 0.5 0.5 0
 0 1 0
 0.5 0.5 0
 0.25 0.5 0.25
 0 0.5 0.5
 0 1 0
 0 0.5 0.5
 0 0 1

27
 1 0 0
 0.5 0.5 0
 0 1 0
 0.5 0.5 0
 0.25 0.5 0.25
 0 0.5 0.5
 0 1 0
 0 0.5 0.5
 0 0 1

3
 0.25 0.5 0.25

27
 1 0 0
 0.5 0.5 0
 0 1 0
 0.5 0.5 0
 0.25 0.5 0.25
 0 0.5 0.5
 0 1 0
 0 0.5 0.5
 0 0 1

27
 1 0 0
 0.5 0.5 0
 0 1 0
 0.5 0.5 0
 0.25 0.5 0.25
 0 0.5 0.5
 0 1 0
 0 0.5 0.5
 0 0 1

3
 0.25 0.5 0.25

27
 1 0 0
 0.5 0.5 0
 0 1 0
 0.5 0.5 0
 0.25 0.5 0.25
 0 0.5 0.5
 0 1 0
 0 0.5 0.5
 0 0 1

27
 1 0 0
 0.5 0.5 0
 0 1 0
 0.5 0.5 0
 0.25 0.5 0.25
 0 0.5 0.5
 0 1 0
 0 0.5 0.5
 0 0 1

3
 0.25 0.5 0.25

27
 1 0 0
 0.5 0.5 0
 0 1 0
 0.5 0.5 0
 0.25 0.5 0.25
 0 0.5 0.5
 0 1 0
 0 0.5 0.5
 0 0 1

3
 0.25 0.5 0.25

27
 1 0 0
 0.5 0.5 0
 0 1 0
 0.5 0.5 0
 0.25 0.5 0.25
 0 0.5 0.5
 0 1 0
 0 0.5 0.5
 0 0 1

3
 0.25 0.5 0.25

27
 1 0 0
 0.5 0.5 0
 0 1 0
 0.5 0.5 0
 0.25 0.5 0.25
 0 0.5 0.5
 0 1 0
 0 0.5 0.5
 0 0 1

27
 1 0 0
 0.5 0.5 0
 0 1 0
 0.5 0.5 0
 0.25 0.5 0.25
 0 0.5 0.5
 0 1 0
 0 0.5 0.5
 0 0 1

27
 1 0 0
 0.5 0.5 0
 0 1 0
 0.5 0.5 0
 0.25 0.5 0.25
 0 0.5 0.5
 0 1 0
 0 0.5 0.5
 0 0 1

3
 0.25 0.5 0.25

27
 1 0 0
 0.5 0.5 0
 0 1 0
 0.5 0.5 0
 0.25 0.5 0.25
 0 0.5 0.5
 0 1 0
 0 0.5 0.5
 0 0 1

3
 0.25 0.5 0.25

27
 1 0 0
 0.5 0.5 0
 0 1 0
 0.5 0.5 0
 0.25 0.5 0.25
 0 0.5 0.5
 0 1 0
 0 0.5 0.5
 0 0 1

3
 0.25 0.5 0.25

27
 1 0 0
 0.5 0.5 0
 0 1 0
 0.5 0.5 0
 0.25 0.5 0.25
 0 0.5 0.5
 0 1 0
 0 0.5 0.5
 0 0 1

27
 1 0 0
 0.5 0.5 0
 0 1 0
 0.5 0.5 0
 0.25 0.5 0.25
 0 0.5 0.5
 0 1 0
 0 0.5 0.5
 0 0 1

27
 1 0 0
 0.5 0.5 0
 0 1 0
 0.5 0.5 0
 0.25 0.5 0.25
 0 0.5 0.5
 0 1 0
 0 0.5 0.5
 0 0 1

3
 0.25 0.5 0.25

3
 0.25 0.5 0.25

27
 1 0 0
 0.5 0.5 0
 0 1 0
 0.5 0.5 0
 0.25 0.5 0.25
 0 0.5 0.5
 0 1 0
 0 0.5 0.5
 0 0 1

3
 0.25 0.5 0.25

3
 0.25 0.5 0.25

27
 1 0 0
 0.5 0.5 0
 0 1 0
 0.5 0.5 0
 0.25 0.5 0.25
 0 0.5 0.5
 0 1 0
 0 0.5 0.5
 0 0 1

27
 1 0 0
 0.5 0.5 0
 0 1 0
 0.5 0.5 0
 0.25 0.5 0.25
 0 0.5 0.5
 0 1 0
 0 0.5 0.5
 0 0 1

27
 1 0 0
 0.5 0.5 0
 0 1 0
 0.5 0.5 0
 0.25 0.5 0.25
 0 0.5 0.5
 0 1 0
 0 0.5 0.5
 0 0 1

27
 1 0 0
 0.5 0.5 0
 0 1 0
 0.5 0.5 0
 0.25 0.5 0.25
 0 0.5 0.5
 0 1 0
 0 0.5 0.5
 0 0 1

3
 0.25 0.5 0.25

27
 1 0 0
 0.5 0.5 0
 0 1 0
 0.5 0.5 0
 0.25 0.5 0.25
 0 0.5 0.5
 0 1 0
 0 0.5 0.5
 0 0 1

27
 1 0 0
 0.5 0.5 0
 0 1 0
 0.5 0.5 0
 0.25 0.5 0.25
 0 0.5 0.5
 0 1 0
 0 0.5 0.5
 0 0 1

27
 1 0 0
 0.5 0.5 0
 0 1 0
 0.5 0.5 0
 0.25 0.5 0.25
 0 0.5 0.5
 0 1 0
 0 0.5 0.5
 0 0 1

3
 0.25 0.5 0.25

27
 1 0 0
 0.5 0.5 0
 0 1 0
 0.5 0.5 0
 0.25 0.5 0.25
 0 0.5 0.5
 0 1 0
 0 0.5 0.5
 0 0 1

27
 1 0 0
 0.5 0.5 0
 0 1 0
 0.5 0.5 0
 0.25 0.5 0.25
 0 0.5 0.5
 0 1 0
 0 0.5 0.5
 0 0 1

3
 0.25 0.5 0.25

3
 0.25 0.5 0.25

27
 1 0 0
 0.5 0.5 0
 0 1 0
 0.5 0.5 0
 0.25 0.5 0.25
 0 0.5 0.5
 0 1 0
 0 0.5 0.5
 0 0 1

27
 1 0 0
 0.5 0.5 0
 0 1 0
 0.5 0.5 0
 0.25 0.5 0.25
 0 0.5 0.5
 0 1 0
 0 0.5 0.5
 0 0 1

27
 1 0 0
 0.5 0.5 0
 0 1 0
 0.5 0.5 0
 0.25 0.5 0.25
 0 0.5 0.5
 0 1 0
 0 0.5 0.5
 0 0 1

3
 0.25 0.5 0.25

27
 1 0 0
 0.5 0.5 0
 0 1 0
 0.5 0.5 0
 0.25 0.5 0.25
 0 0.5 0.5
 0 1 0
 0 0.5 0.5
 0 0 1

27
 1 0 0
 0.5 0.5 0
 0 1 0
 0.5 0.5 0
 0.25 0.5 0.25
 0 0.5 0.5
 0 1 0
 0 0.5 0.5
 0 0 1

3
 0.25 0.5 0.25

27
 1 0 0
 0.5 0.5 0
 0 1 0
 0.5 0.5 0
 0.25 0.5 0.25
 0 0.5 0.5
 0 1 0
 0 0.5 0.5
 0 0 1

3
 0.25 0.5 0.25

27
 1 0 0
 0.5 0.5 0
 0 1 0
 0.5 0.5 0
 0.25 0.5 0.25
 0 0.5 0.5
 0 1 0
 0 0.5 0.5
 0 0 1

3
 0.25 0.5 0.25

27
 1 0 0
 0.5 0.5 0
 0 1 0
 0.5 0.5 0
 0.25 0.5 0.25
 0 0.5 0.5
 0 1 0
 0 0.5 0.5
 0 0 1

27
 1 0 0
 0.5 0.5 0
 0 1 0
 0.5 0.5 0
 0.25 0.5 0.25
 0 0.5 0.5
 0 1 0
 0 0.5 0.5
 0 0 1

27
 1 0 0
 0.5 0.5 0
 0 1 0
 0.5 0.5 0
 0.25 0.5 0.25
 0 0.5 0.5
 0 1 0
 0 0.5 0.5
 0 0 1

27
 1 0 0
 0.5 0.5 0
 0 1 0
 0.5 0.5 0
 0.25 0.5 0.25
 0 0.5 0.5
 0 1 0
 0 0.5 0.5
 0 0 1

3
 0.25 0.5 0.25

27
 1 0 0
 0.5 0.5 0
 0 1 0
 0.5 0.5 0
 0.25 0.5 0.25
 0 0.5 0.5
 0 1 0
 0 0.5 0.5
 0 0 1

3
 0.25 0.5 0.25

27
 1 0 0
 0.5 0.5 0
 0 1 0
 0.5 0.5 0
 0.25 0.5 0.25
 0 0.5 0.5
 0 1 0
 0 0.5 0.5
 0 0 1

3
 0.25 0.5 0.25

3
 0.25 0.5 0.25

27
 1 0 0
 0.5 0.5 0
 0 1 0
 0.5 0.5 0
 0.25 0.5 0.25
 0 0.5 0.5
 0 1 0
 0 0.5 0.5
 0 0 1

27
 1 0 0
 0.5 0.5 0
 0 1 0
 0.5 0.5 0
 0.25 0.5 0.25
 0 0.5 0.5
 0 1 0
 0 0.5 0.5
 0 0 1

3
 0.25 0.5 0.25

27
 1 0 0
 0.5 0.5 0
 0 1 0
 0.5 0.5 0
 0.25 0.5 0.25
 0 0.5 0.5
 0 1 0
 0 0.5 0.5
 0 0 1

27
 1 0 0
 0.5 0.5 0
 0 1 0
 0.5 0.5 0
 0.25 0.5 0.25
 0 0.5 0.5
 0 1 0
 0 0.5 0.5
 0 0 1

3
 0.25 0.5 0.25

3
 0.25 0.5 0.25

27
 1 0 0
 0.5 0.5 0
 0 1 0
 0.5 0.5 0
 0.25 0.5 0.25
 0 0.5 0.5
 0 1 0
 0 0.5 0.5
 0 0 1

27
 1 0 0
 0.5 0.5 0
 0 1 0
 0.5 0.5 0
 0.25 0.5 0.25
 0 0.5 0.5
 0 1 0
 0 0.5 0.5
 0 0 1

27
 1 0 0
 0.5 0.5 0
 0 1 0
 0.5 0.5 0
 0.25 0.5 0.25
 0 0.5 0.5
 0 1 0
 0 0.5 0.5
 0 0 1

3
 0.25 0.5 0.25

3
 0.25 0.5 0.25

27
 1 0 0
 0.5 0.5 0
 0 1 0
 0.5 0.5 0
 0.25 0.5 0.25
 0 0.5 0.5
 0 1 0
 0 0.5 0.5
 0 0 1

27
 1 0 0
 0.5 0.5 0
 0 1 0
 0.5 0.5 0
 0.25 0.5 0.25
 0 0.5 0.5
 0 1 0
 0 0.5 0.5
 0 0 1

27
 1 0 0
 0.5 0.5 0
 0 1 0
 0.5 0.5 0
 0.25 0.5 0.25
 0 0.5 0.5
 0 1 0
 0 0.5 0.5
 0 0 1

3
 0.25 0.5 0.25

27
 1 0 0
 0.5 0.5 0
 0 1 0
 0.5 0.5 0
 0.25 0.5 0.25
 0 0.5 0.5
 0 1 0
 0 0.5 0.5
 0 0 1

3
 0.25 0.5 0.25

3
 0.25 0.5 0.25

27
 1 0 0
 0.5 0.5 0
 0 1 0
 0.5 0.5 0
 0.25 0.5 0.25
 0 0.5 0.5
 0 1 0
 0 0.5 0.5
 0 0 1

27
 1 0 0
 0.5 0.5 0
 0 1 0
 0.5 0.5 0
 0.25 0.5 0.25
 0 0.5 0.5
 0 1 0
 0 0.5 0.5
 0 0 1

3
 0.25 0.5 0.25

27
 1 0 0
 0.5 0.5 0
 0 1 0
 0.5 0.5 0
 0.25 0.5 0.25
 0 0.5 0.5
 0 1 0
 0 0.5 0.5
 0 0 1

27
 1 0 0
 0.5 0.5 0
 0 1 0
 0.5 0.5 0
 0.25 0.5 0.25
 0 0.5 0.5
 0 1 0
 0 0.5 0.5
 0 0 1

3
 0.25 0.5 0.25

3
 0.25 0.5 0.25

27
 1 0 0
 0.5 0.5 0
 0 1 0
 0.5 0.5 0
 0.25 0.5 0.25
 0 0.5 0.5
 0 1 0
 0 0.5 0.5
 0 0 1

27
 1 0 0
 0.5 0.5 0
 0 1 0
 0.5 0.5 0
 0.25 0.5 0.25
 0 0.5 0.5
 0 1 0
 0 0.5 0.5
 0 0 1

27
 1 0 0
 0.5 0.5 0
 0 1 0
 0.5 0.5 0
 0.25 0.5 0.25
 0 0.5 0.5
 0 1 0
 0 0.5 0.5
 0 0 1

27
 1 0 0
 0.5 0.5 0
 0 1 0
 0.5 0.5 0
 0.25 0.5 0.25
 0 0.5 0.5
 0 1 0
 0 0.5 0.5
 0 0 1

27
 1 0 0
 0.5 0.5 0
 0 1 0
 0.5 0.5 0
 0.25 0.5 0.25
 0 0.5 0.5
 0 1 0
 0 0.5 0.5
 0 0 1

27
 1 0 0
 0.5 0.5 0
 0 1 0
 0.5 0.5 0
 0.25 0.5 0.25
 0 0.5 0.5
 0 1 0
 0 0.5 0.5
 0 0 1

3
 0.25 0.5 0.25

27
 1 0 0
 0.5 0.5 0
 0 1 0
 0.5 0.5 0
 0.25 0.5 0.25
 0 0.5 0.5
 0 1 0
 0 0.5 0.5
 0 0 1

27
 1 0 0
 0.5 0.5 0
 0 1 0
 0.5 0.5 0
 0.25 0.5 0.25
 0 0.5 0.5
 0 1 0
 0 0.5 0.5
 0 0 1

27
 1 0 0
 0.5 0.5 0
 0 1 0
 0.5 0.5 0
 0.25 0.5 0.25
 0 0.5 0.5
 0 1 0
 0 0.5 0.5
 0 0 1

3
 0.25 0.5 0.25

3
 0.25 0.5 0.25

27
 1 0 0
 0.5 0.5 0
 0 1 0
 0.5 0.5 0
 0.25 0.5 0.25
 0 0.5 0.5
 0 1 0
 0 0.5 0.5
 0 0 1

27
 1 0 0
 0.5 0.5 0
 0 1 0
 0.5 0.5 0
 0.25 0.5 0.25
 0 0.5 0.5
 0 1 0
 0 0.5 0.5
 0 0 1

27
 1 0 0
 0.5 0.5 0
 0 1 0
 0.5 0.5 0
 0.25 0.5 0.25
 0 0.5 0.5
 0 1 0
 0 0.5 0.5
 0 0 1

27
 1 0 0
 0.5 0.5 0
 0 1 0
 0.5 0.5 0
 0.25 0.5 0.25
 0 0.5 0.5
 0 1 0
 0 0.5 0.5
 0 0 1

27
 1 0 0
 0.5 0.5 0
 0 1 0
 0.5 0.5 0
 0.25 0.5 0.25
 0 0.5 0.5
 0 1 0
 0 0.5 0.5
 0 0 1

27
 1 0 0
 0.5 0.5 0
 0 1 0
 0.5 0.5 0
 0.25 0.5 0.25
 0 0.5 0.5
 0 1 0
 0 0.5 0.5
 0 0 1

27
 1 0 0
 0.5 0.5 0
 0 1 0
 0.5 0.5 0
 0.25 0.5 0.25
 0 0.5 0.5
 0 1 0
 0 0.5 0.5
 0 0 1

3
 0.25 0.5 0.25

3
 0.25 0.5 0.25

27
 1 0 0
 0.5 0.5 0
 0 1 0
 0.5 0.5 0
 0.25 0.5 0.25
 0 0.5 0.5
 0 1 0
 0 0.5 0.5
 0 0 1

27
 1 0 0
 0.5 0.5 0
 0 1 0
 0.5 0.5 0
 0.25 0.5 0.25
 0 0.5 0.5
 0 1 0
 0 0.5 0.5
 0 0 1

3
 0.25 0.5 0.25

27
 1 0 0
 0.5 0.5 0
 0 1 0
 0.5 0.5 0
 0.25 0.5 0.25
 0 0.5 0.5
 0 1 0
 0 0.5 0.5
 0 0 1

3
 0.25 0.5 0.25

27
 1 0 0
 0.5 0.5 0
 0 1 0
 0.5 0.5 0
 0.25 0.5 0.25
 0 0.5 0.5
 0 1 0
 0 0.5 0.5
 0 0 1

27
 1 0 0
 0.5 0.5 0
 0 1 0
 0.5 0.5 0
 0.25 0.5 0.25
 0 0.5 0.5
 0 1 0
 0 0.5 0.5
 0 0 1

27
 1 0 0
 0.5 0.5 0
 0 1 0
 0.5 0.5 0
 0.25 0.5 0.25
 0 0.5 0.5
 0 1 0
 0 0.5 0.5
 0 0 1

27
 1 0 0
 0.5 0.5 0
 0 1 0
 0.5 0.5 0
 0.25 0.5 0.25
 0 0.5 0.5
 0 1 0
 0 0.5 0.5
 0 0 1

27
 1 0 0
 0.5 0.5 0
 0 1 0
 0.5 0.5 0
 0.25 0.5 0.25
 0 0.5 0.5
 0 1 0
 0 0.5 0.5
 0 0 1

27
 1 0 0
 0.5 0.5 0
 0 1 0
 0.5 0.5 0
 0.25 0.5 0.25
 0 0.5 0.5
 0 1 0
 0 0.5 0.5
 0 0 1

27
 1 0 0
 0.5 0.5 0
 0 1 0
 0.5 0.5 0
 0.25 0.5 0.25
 0 0.5 0.5
 0 1 0
 0 0.5 0.5
 0 0 1

27
 1 0 0
 0.5 0.5 0
 0 1 0
 0.5 0.5 0
 0.25 0.5 0.25
 0 0.5 0.5
 0 1 0
 0 0.5 0.5
 0 0 1

27
 1 0 0
 0.5 0.5 0
 0 1 0
 0.5 0.5 0
 0.25 0.5 0.25
 0 0.5 0.5
 0 1 0
 0 0.5 0.5
 0 0 1

27
 1 0 0
 0.5 0.5 0
 0 1 0
 0.5 0.5 0
 0.25 0.5 0.25
 0 0.5 0.5
 0 1 0
 0 0.5 0.5
 0 0 1

27
 1 0 0
 0.5 0.5 0
 0 1 0
 0.5 0.5 0
 0.25 0.5 0.25
 0 0.5 0.5
 0 1 0
 0 0.5 0.5
 0 0 1

27
 1 0 0
 0.5 0.5 0
 0 1 0
 0.5 0.5 0
 0.25 0.5 0.25
 0 0.5 0.5
 0 1 0
 0 0.5 0.5
 0 0 1

27
 1 0 0
 0.5 0.5 0
 0 1 0
 0.5 0.5 0
 0.25 0.5 0.25
 0 0.5 0.5
 0 1 0
 0 0.5 0.5
 0 0 1

27
 1 0 0
 0.5 0.5 0
 0 1 0
 0.5 0.5 0
 0.25 0.5 0.25
 0 0.5 0.5
 0 1 0
 0 0.5 0.5
 0 0 1

27
 1 0 0
 0.5 0.5 0
 0 1 0
 0.5 0.5 0
 0.25 0.5 0.25
 0 0.5 0.5
 0 1 0
 0 0.5 0.5
 0 0 1

27
 1 0 0
 0.5 0.5 0
 0 1 0
 0.5 0.5 0
 0.25 0.5 0.25
 0 0.5 0.5
 0 1 0
 0 0.5 0.5
 0 0 1

27
 1 0 0
 0.5 0.5 0
 0 1 0
 0.5 0.5 0
 0.25 0.5 0.25
 0 0.5 0.5
 0 1 0
 0 0.5 0.5
 0 0 1

27
 1 0 0
 0.5 0.5 0
 0 1 0
 0.5 0.5 0
 0.25 0.5 0.25
 0 0.5 0.5
 0 1 0
 0 0.5 0.5
 0 0 1

3
 0.25 0.5 0.25

27
 1 0 0
 0.5 0.5 0
 0 1 0
 0.5 0.5 0
 0.25 0.5 0.25
 0 0.5 0.5
 0 1 0
 0 0.5 0.5
 0 0 1

27
 1 0 0
 0.5 0.5 0
 0 1 0
 0.5 0.5 0
 0.25 0.5 0.25
 0 0.5 0.5
 0 1 0
 0 0.5 0.5
 0 0 1

3
 0.25 0.5 0.25

27
 1 0 0
 0.5 0.5 0
 0 1 0
 0.5 0.5 0
 0.25 0.5 0.25
 0 0.5 0.5
 0 1 0
 0 0.5 0.5
 0 0 1

27
 1 0 0
 0.5 0.5 0
 0 1 0
 0.5 0.5 0
 0.25 0.5 0.25
 0 0.5 0.5
 0 1 0
 0 0.5 0.5
 0 0 1

27
 1 0 0
 0.5 0.5 0
 0 1 0
 0.5 0.5 0
 0.25 0.5 0.25
 0 0.5 0.5
 0 1 0
 0 0.5 0.5
 0 0 1

27
 1 0 0
 0.5 0.5 0
 0 1 0
 0.5 0.5 0
 0.25 0.5 0.25
 0 0.5 0.5
 0 1 0
 0 0.5 0.5
 0 0 1

27
 1 0 0
 0.5 0.5 0
 0 1 0
 0.5 0.5 0
 0.25 0.5 0.25
 0 0.5 0.5
 0 1 0
 0 0.5 0.5
 0 0 1

27
 1 0 0
 0.5 0.5 0
 0 1 0
 0.5 0.5 0
 0.25 0.5 0.25
 0 0.5 0.5
 0 1 0
 0 0.5 0.5
 0 0 1

3
 0.25 0.5 0.25

3
 0.25 0.5 0.25

27
 1 0 0
 0.5 0.5 0
 0 1 0
 0.5 0.5 0
 0.25 0.5 0.25
 0 0.5 0.5
 0 1 0
 0 0.5 0.5
 0 0 1

27
 1 0 0
 0.5 0.5 0
 0 1 0
 0.5 0.5 0
 0.25 0.5 0.25
 0 0.5 0.5
 0 1 0
 0 0.5 0.5
 0 0 1

3
 0.25 0.5 0.25

27
 1 0 0
 0.5 0.5 0
 0 1 0
 0.5 0.5 0
 0.25 0.5 0.25
 0 0.5 0.5
 0 1 0
 0 0.5 0.5
 0 0 1

27
 1 0 0
 0.5 0.5 0
 0 1 0
 0.5 0.5 0
 0.25 0.5 0.25
 0 0.5 0.5
 0 1 0
 0 0.5 0.5
 0 0 1

3
 0.25 0.5 0.25

3
 0.25 0.5 0.25

27
 1 0 0
 0.5 0.5 0
 0 1 0
 0.5 0.5 0
 0.25 0.5 0.25
 0 0.5 0.5
 0 1 0
 0 0.5 0.5
 0 0 1

27
 1 0 0
 0.5 0.5 0
 0 1 0
 0.5 0.5 0
 0.25 0.5 0.25
 0 0.5 0.5
 0 1 0
 0 0.5 0.5
 0 0 1

27
 1 0 0
 0.5 0.5 0
 0 1 0
 0.5 0.5 0
 0.25 0.5 0.25
 0 0.5 0.5
 0 1 0
 0 0.5 0.5
 0 0 1

27
 1 0 0
 0.5 0.5 0
 0 1 0
 0.5 0.5 0
 0.25 0.5 0.25
 0 0.5 0.5
 0 1 0
 0 0.5 0.5
 0 0 1

3
 0.25 0.5 0.25

3
 0.25 0.5 0.25

27
 1 0 0
 0.5 0.5 0
 0 1 0
 0.5 0.5 0
 0.25 0.5 0.25
 0 0.5 0.5
 0 1 0
 0 0.5 0.5
 0 0 1

27
 1 0 0
 0.5 0.5 0
 0 1 0
 0.5 0.5 0
 0.25 0.5 0.25
 0 0.5 0.5
 0 1 0
 0 0.5 0.5
 0 0 1

27
 1 0 0
 0.5 0.5 0
 0 1 0
 0.5 0.5 0
 0.25 0.5 0.25
 0 0.5 0.5
 0 1 0
 0 0.5 0.5
 0 0 1

3
 0.25 0.5 0.25

27
 1 0 0
 0.5 0.5 0
 0 1 0
 0.5 0.5 0
 0.25 0.5 0.25
 0 0.5 0.5
 0 1 0
 0 0.5 0.5
 0 0 1

3
 0.25 0.5 0.25

3
 0.25 0.5 0.25

27
 1 0 0
 0.5 0.5 0
 0 1 0
 0.5 0.5 0
 0.25 0.5 0.25
 0 0.5 0.5
 0 1 0
 0 0.5 0.5
 0 0 1

3
 0.25 0.5 0.25

27
 1 0 0
 0.5 0.5 0
 0 1 0
 0.5 0.5 0
 0.25 0.5 0.25
 0 0.5 0.5
 0 1 0
 0 0.5 0.5
 0 0 1

27
 1 0 0
 0.5 0.5 0
 0 1 0
 0.5 0.5 0
 0.25 0.5 0.25
 0 0.5 0.5
 0 1 0
 0 0.5 0.5
 0 0 1

3
 0.25 0.5 0.25

3
 0.25 0.5 0.25

27
 1 0 0
 0.5 0.5 0
 0 1 0
 0.5 0.5 0
 0.25 0.5 0.25
 0 0.5 0.5
 0 1 0
 0 0.5 0.5
 0 0 1

27
 1 0 0
 0.5 0.5 0
 0 1 0
 0.5 0.5 0
 0.25 0.5 0.25
 0 0.5 0.5
 0 1 0
 0 0.5 0.5
 0 0 1

27
 1 0 0
 0.5 0.5 0
 0 1 0
 0.5 0.5 0
 0.25 0.5 0.25
 0 0.5 0.5
 0 1 0
 0 0.5 0.5
 0 0 1

27
 1 0 0
 0.5 0.5 0
 0 1 0
 0.5 0.5 0
 0.25 0.5 0.25
 0 0.5 0.5
 0 1 0
 0 0.5 0.5
 0 0 1

27
 1 0 0
 0.5 0.5 0
 0 1 0
 0.5 0.5 0
 0.25 0.5 0.25
 0 0.5 0.5
 0 1 0
 0 0.5 0.5
 0 0 1

3
 0.25 0.5 0.25

27
 1 0 0
 0.5 0.5 0
 0 1 0
 0.5 0.5 0
 0.25 0.5 0.25
 0 0.5 0.5
 0 1 0
 0 0.5 0.5
 0 0 1

3
 0.25 0.5 0.25

3
 0.25 0.5 0.25

27
 1 0 0
 0.5 0.5 0
 0 1 0
 0.5 0.5 0
 0.25 0.5 0.25
 0 0.5 0.5
 0 1 0
 0 0.5 0.5
 0 0 1

27
 1 0 0
 0.5 0.5 0
 0 1 0
 0.5 0.5 0
 0.25 0.5 0.25
 0 0.5 0.5
 0 1 0
 0 0.5 0.5
 0 0 1

27
 1 0 0
 0.5 0.5 0
 0 1 0
 0.5 0.5 0
 0.25 0.5 0.25
 0 0.5 0.5
 0 1 0
 0 0.5 0.5
 0 0 1

3
 0.25 0.5 0.25

3
 0.25 0.5 0.25

27
 1 0 0
 0.5 0.5 0
 0 1 0
 0.5 0.5 0
 0.25 0.5 0.25
 0 0.5 0.5
 0 1 0
 0 0.5 0.5
 0 0 1

3
 0.25 0.5 0.25

27
 1 0 0
 0.5 0.5 0
 0 1 0
 0.5 0.5 0
 0.25 0.5 0.25
 0 0.5 0.5
 0 1 0
 0 0.5 0.5
 0 0 1

27
 1 0 0
 0.5 0.5 0
 0 1 0
 0.5 0.5 0
 0.25 0.5 0.25
 0 0.5 0.5
 0 1 0
 0 0.5 0.5
 0 0 1

27
 1 0 0
 0.5 0.5 0
 0 1 0
 0.5 0.5 0
 0.25 0.5 0.25
 0 0.5 0.5
 0 1 0
 0 0.5 0.5
 0 0 1

3
 0.25 0.5 0.25

27
 1 0 0
 0.5 0.5 0
 0 1 0
 0.5 0.5 0
 0.25 0.5 0.25
 0 0.5 0.5
 0 1 0
 0 0.5 0.5
 0 0 1

3
 0.25 0.5 0.25

27
 1 0 0
 0.5 0.5 0
 0 1 0
 0.5 0.5 0
 0.25 0.5 0.25
 0 0.5 0.5
 0 1 0
 0 0.5 0.5
 0 0 1

27
 1 0 0
 0.5 0.5 0
 0 1 0
 0.5 0.5 0
 0.25 0.5 0.25
 0 0.5 0.5
 0 1 0
 0 0.5 0.5
 0 0 1

3
 0.25 0.5 0.25

27
 1 0 0
 0.5 0.5 0
 0 1 0
 0.5 0.5 0
 0.25 0.5 0.25
 0 0.5 0.5
 0 1 0
 0 0.5 0.5
 0 0 1

27
 1 0 0
 0.5 0.5 0
 0 1 0
 0.5 0.5 0
 0.25 0.5 0.25
 0 0.5 0.5
 0 1 0
 0 0.5 0.5
 0 0 1

3
 0.25 0.5 0.25

3
 0.25 0.5 0.25

27
 1 0 0
 0.5 0.5 0
 0 1 0
 0.5 0.5 0
 0.25 0.5 0.25
 0 0.5 0.5
 0 1 0
 0 0.5 0.5
 0 0 1

27
 1 0 0
 0.5 0.5 0
 0 1 0
 0.5 0.5 0
 0.25 0.5 0.25
 0 0.5 0.5
 0 1 0
 0 0.5 0.5
 0 0 1

27
 1 0 0
 0.5 0.5 0
 0 1 0
 0.5 0.5 0
 0.25 0.5 0.25
 0 0.5 0.5
 0 1 0
 0 0.5 0.5
 0 0 1

27
 1 0 0
 0.5 0.5 0
 0 1 0
 0.5 0.5 0
 0.25 0.5 0.25
 0 0.5 0.5
 0 1 0
 0 0.5 0.5
 0 0 1

27
 1 0 0
 0.5 0.5 0
 0 1 0
 0.5 0.5 0
 0.25 0.5 0.25
 0 0.5 0.5
 0 1 0
 0 0.5 0.5
 0 0 1

27
 1 0 0
 0.5 0.5 0
 0 1 0
 0.5 0.5 0
 0.25 0.5 0.25
 0 0.5 0.5
 0 1 0
 0 0.5 0.5
 0 0 1

3
 0.25 0.5 0.25

3
 0.25 0.5 0.25

27
 1 0 0
 0.5 0.5 0
 0 1 0
 0.5 0.5 0
 0.25 0.5 0.25
 0 0.5 0.5
 0 1 0
 0 0.5 0.5
 0 0 1

3
 0.25 0.5 0.25

27
 1 0 0
 0.5 0.5 0
 0 1 0
 0.5 0.5 0
 0.25 0.5 0.25
 0 0.5 0.5
 0 1 0
 0 0.5 0.5
 0 0 1

27
 1 0 0
 0.5 0.5 0
 0 1 0
 0.5 0.5 0
 0.25 0.5 0.25
 0 0.5 0.5
 0 1 0
 0 0.5 0.5
 0 0 1

27
 1 0 0
 0.5 0.5 0
 0 1 0
 0.5 0.5 0
 0.25 0.5 0.25
 0 0.5 0.5
 0 1 0
 0 0.5 0.5
 0 0 1

27
 1 0 0
 0.5 0.5 0
 0 1 0
 0.5 0.5 0
 0.25 0.5 0.25
 0 0.5 0.5
 0 1 0
 0 0.5 0.5
 0 0 1

27
 1 0 0
 0.5 0.5 0
 0 1 0
 0.5 0.5 0
 0.25 0.5 0.25
 0 0.5 0.5
 0 1 0
 0 0.5 0.5
 0 0 1

27
 1 0 0
 0.5 0.5 0
 0 1 0
 0.5 0.5 0
 0.25 0.5 0.25
 0 0.5 0.5
 0 1 0
 0 0.5 0.5
 0 0 1

3
 0.25 0.5 0.25

3
 0.25 0.5 0.25

27
 1 0 0
 0.5 0.5 0
 0 1 0
 0.5 0.5 0
 0.25 0.5 0.25
 0 0.5 0.5
 0 1 0
 0 0.5 0.5
 0 0 1

27
 1 0 0
 0.5 0.5 0
 0 1 0
 0.5 0.5 0
 0.25 0.5 0.25
 0 0.5 0.5
 0 1 0
 0 0.5 0.5
 0 0 1

27
 1 0 0
 0.5 0.5 0
 0 1 0
 0.5 0.5 0
 0.25 0.5 0.25
 0 0.5 0.5
 0 1 0
 0 0.5 0.5
 0 0 1

27
 1 0 0
 0.5 0.5 0
 0 1 0
 0.5 0.5 0
 0.25 0.5 0.25
 0 0.5 0.5
 0 1 0
 0 0.5 0.5
 0 0 1

27
 1 0 0
 0.5 0.5 0
 0 1 0
 0.5 0.5 0
 0.25 0.5 0.25
 0 0.5 0.5
 0 1 0
 0 0.5 0.5
 0 0 1

3
 0.25 0.5 0.25

27
 1 0 0
 0.5 0.5 0
 0 1 0
 0.5 0.5 0
 0.25 0.5 0.25
 0 0.5 0.5
 0 1 0
 0 0.5 0.5
 0 0 1

27
 1 0 0
 0.5 0.5 0
 0 1 0
 0.5 0.5 0
 0.25 0.5 0.25
 0 0.5 0.5
 0 1 0
 0 0.5 0.5
 0 0 1

27
 1 0 0
 0.5 0.5 0
 0 1 0
 0.5 0.5 0
 0.25 0.5 0.25
 0 0.5 0.5
 0 1 0
 0 0.5 0.5
 0 0 1

3
 0.25 0.5 0.25

27
 1 0 0
 0.5 0.5 0
 0 1 0
 0.5 0.5 0
 0.25 0.5 0.25
 0 0.5 0.5
 0 1 0
 0 0.5 0.5
 0 0 1

27
 1 0 0
 0.5 0.5 0
 0 1 0
 0.5 0.5 0
 0.25 0.5 0.25
 0 0.5 0.5
 0 1 0
 0 0.5 0.5
 0 0 1

27
 1 0 0
 0.5 0.5 0
 0 1 0
 0.5 0.5 0
 0.25 0.5 0.25
 0 0.5 0.5
 0 1 0
 0 0.5 0.5
 0 0 1

27
 1 0 0
 0.5 0.5 0
 0 1 0
 0.5 0.5 0
 0.25 0.5 0.25
 0 0.5 0.5
 0 1 0
 0 0.5 0.5
 0 0 1

3
 0.25 0.5 0.25

27
 1 0 0
 0.5 0.5 0
 0 1 0
 0.5 0.5 0
 0.25 0.5 0.25
 0 0.5 0.5
 0 1 0
 0 0.5 0.5
 0 0 1

27
 1 0 0
 0.5 0.5 0
 0 1 0
 0.5 0.5 0
 0.25 0.5 0.25
 0 0.5 0.5
 0 1 0
 0 0.5 0.5
 0 0 1

27
 1 0 0
 0.5 0.5 0
 0 1 0
 0.5 0.5 0
 0.25 0.5 0.25
 0 0.5 0.5
 0 1 0
 0 0.5 0.5
 0 0 1

27
 1 0 0
 0.5 0.5 0
 0 1 0
 0.5 0.5 0
 0.25 0.5 0.25
 0 0.5 0.5
 0 1 0
 0 0.5 0.5
 0 0 1

3
 0.25 0.5 0.25

3
 0.25 0.5 0.25

27
 1 0 0
 0.5 0.5 0
 0 1 0
 0.5 0.5 0
 0.25 0.5 0.25
 0 0.5 0.5
 0 1 0
 0 0.5 0.5
 0 0 1

27
 1 0 0
 0.5 0.5 0
 0 1 0
 0.5 0.5 0
 0.25 0.5 0.25
 0 0.5 0.5
 0 1 0
 0 0.5 0.5
 0 0 1

27
 1 0 0
 0.5 0.5 0
 0 1 0
 0.5 0.5 0
 0.25 0.5 0.25
 0 0.5 0.5
 0 1 0
 0 0.5 0.5
 0 0 1

27
 1 0 0
 0.5 0.5 0
 0 1 0
 0.5 0.5 0
 0.25 0.5 0.25
 0 0.5 0.5
 0 1 0
 0 0.5 0.5
 0 0 1

27
 1 0 0
 0.5 0.5 0
 0 1 0
 0.5 0.5 0
 0.25 0.5 0.25
 0 0.5 0.5
 0 1 0
 0 0.5 0.5
 0 0 1

27
 1 0 0
 0.5 0.5 0
 0 1 0
 0.5 0.5 0
 0.25 0.5 0.25
 0 0.5 0.5
 0 1 0
 0 0.5 0.5
 0 0 1

27
 1 0 0
 0.5 0.5 0
 0 1 0
 0.5 0.5 0
 0.25 0.5 0.25
 0 0.5 0.5
 0 1 0
 0 0.5 0.5
 0 0 1

27
 1 0 0
 0.5 0.5 0
 0 1 0
 0.5 0.5 0
 0.25 0.5 0.25
 0 0.5 0.5
 0 1 0
 0 0.5 0.5
 0 0 1

27
 1 0 0
 0.5 0.5 0
 0 1 0
 0.5 0.5 0
 0.25 0.5 0.25
 0 0.5 0.5
 0 1 0
 0 0.5 0.5
 0 0 1

27
 1 0 0
 0.5 0.5 0
 0 1 0
 0.5 0.5 0
 0.25 0.5 0.25
 0 0.5 0.5
 0 1 0
 0 0.5 0.5
 0 0 1

3
 0.25 0.5 0.25

3
 0.25 0.5 0.25

27
 1 0 0
 0.5 0.5 0
 0 1 0
 0.5 0.5 0
 0.25 0.5 0.25
 0 0.5 0.5
 0 1 0
 0 0.5 0.5
 0 0 1

27
 1 0 0
 0.5 0.5 0
 0 1 0
 0.5 0.5 0
 0.25 0.5 0.25
 0 0.5 0.5
 0 1 0
 0 0.5 0.5
 0 0 1

27
 1 0 0
 0.5 0.5 0
 0 1 0
 0.5 0.5 0
 0.25 0.5 0.25
 0 0.5 0.5
 0 1 0
 0 0.5 0.5
 0 0 1

27
 1 0 0
 0.5 0.5 0
 0 1 0
 0.5 0.5 0
 0.25 0.5 0.25
 0 0.5 0.5
 0 1 0
 0 0.5 0.5
 0 0 1

3
 0.25 0.5 0.25

27
 1 0 0
 0.5 0.5 0
 0 1 0
 0.5 0.5 0
 0.25 0.5 0.25
 0 0.5 0.5
 0 1 0
 0 0.5 0.5
 0 0 1

27
 1 0 0
 0.5 0.5 0
 0 1 0
 0.5 0.5 0
 0.25 0.5 0.25
 0 0.5 0.5
 0 1 0
 0 0.5 0.5
 0 0 1

3
 0.25 0.5 0.25

3
 0.25 0.5 0.25

27
 1 0 0
 0.5 0.5 0
 0 1 0
 0.5 0.5 0
 0.25 0.5 0.25
 0 0.5 0.5
 0 1 0
 0 0.5 0.5
 0 0 1

27
 1 0 0
 0.5 0.5 0
 0 1 0
 0.5 0.5 0
 0.25 0.5 0.25
 0 0.5 0.5
 0 1 0
 0 0.5 0.5
 0 0 1

27
 1 0 0
 0.5 0.5 0
 0 1 0
 0.5 0.5 0
 0.25 0.5 0.25
 0 0.5 0.5
 0 1 0
 0 0.5 0.5
 0 0 1

27
 1 0 0
 0.5 0.5 0
 0 1 0
 0.5 0.5 0
 0.25 0.5 0.25
 0 0.5 0.5
 0 1 0
 0 0.5 0.5
 0 0 1

27
 1 0 0
 0.5 0.5 0
 0 1 0
 0.5 0.5 0
 0.25 0.5 0.25
 0 0.5 0.5
 0 1 0
 0 0.5 0.5
 0 0 1

27
 1 0 0
 0.5 0.5 0
 0 1 0
 0.5 0.5 0
 0.25 0.5 0.25
 0 0.5 0.5
 0 1 0
 0 0.5 0.5
 0 0 1

3
 0.25 0.5 0.25

3
 0.25 0.5 0.25

27
 1 0 0
 0.5 0.5 0
 0 1 0
 0.5 0.5 0
 0.25 0.5 0.25
 0 0.5 0.5
 0 1 0
 0 0.5 0.5
 0 0 1

27
 1 0 0
 0.5 0.5 0
 0 1 0
 0.5 0.5 0
 0.25 0.5 0.25
 0 0.5 0.5
 0 1 0
 0 0.5 0.5
 0 0 1

27
 1 0 0
 0.5 0.5 0
 0 1 0
 0.5 0.5 0
 0.25 0.5 0.25
 0 0.5 0.5
 0 1 0
 0 0.5 0.5
 0 0 1

27
 1 0 0
 0.5 0.5 0
 0 1 0
 0.5 0.5 0
 0.25 0.5 0.25
 0 0.5 0.5
 0 1 0
 0 0.5 0.5
 0 0 1

27
 1 0 0
 0.5 0.5 0
 0 1 0
 0.5 0.5 0
 0.25 0.5 0.25
 0 0.5 0.5
 0 1 0
 0 0.5 0.5
 0 0 1

3
 0.25 0.5 0.25

27
 1 0 0
 0.5 0.5 0
 0 1 0
 0.5 0.5 0
 0.25 0.5 0.25
 0 0.5 0.5
 0 1 0
 0 0.5 0.5
 0 0 1

3
 0.25 0.5 0.25

27
 1 0 0
 0.5 0.5 0
 0 1 0
 0.5 0.5 0
 0.25 0.5 0.25
 0 0.5 0.5
 0 1 0
 0 0.5 0.5
 0 0 1

27
 1 0 0
 0.5 0.5 0
 0 1 0
 0.5 0.5 0
 0.25 0.5 0.25
 0 0.5 0.5
 0 1 0
 0 0.5 0.5
 0 0 1

27
 1 0 0
 0.5 0.5 0
 0 1 0
 0.5 0.5 0
 0.25 0.5 0.25
 0 0.5 0.5
 0 1 0
 0 0.5 0.5
 0 0 1

27
 1 0 0
 0.5 0.5 0
 0 1 0
 0.5 0.5 0
 0.25 0.5 0.25
 0 0.5 0.5
 0 1 0
 0 0.5 0.5
 0 0 1

27
 1 0 0
 0.5 0.5 0
 0 1 0
 0.5 0.5 0
 0.25 0.5 0.25
 0 0.5 0.5
 0 1 0
 0 0.5 0.5
 0 0 1

27
 1 0 0
 0.5 0.5 0
 0 1 0
 0.5 0.5 0
 0.25 0.5 0.25
 0 0.5 0.5
 0 1 0
 0 0.5 0.5
 0 0 1

3
 0.25 0.5 0.25

27
 1 0 0
 0.5 0.5 0
 0 1 0
 0.5 0.5 0
 0.25 0.5 0.25
 0 0.5 0.5
 0 1 0
 0 0.5 0.5
 0 0 1

3
 0.25 0.5 0.25

3
 0.25 0.5 0.25

27
 1 0 0
 0.5 0.5 0
 0 1 0
 0.5 0.5 0
 0.25 0.5 0.25
 0 0.5 0.5
 0 1 0
 0 0.5 0.5
 0 0 1

3
 0.25 0.5 0.25

3
 0.25 0.5 0.25

27
 1 0 0
 0.5 0.5 0
 0 1 0
 0.5 0.5 0
 0.25 0.5 0.25
 0 0.5 0.5
 0 1 0
 0 0.5 0.5
 0 0 1

27
 1 0 0
 0.5 0.5 0
 0 1 0
 0.5 0.5 0
 0.25 0.5 0.25
 0 0.5 0.5
 0 1 0
 0 0.5 0.5
 0 0 1

3
 0.25 0.5 0.25

27
 1 0 0
 0.5 0.5 0
 0 1 0
 0.5 0.5 0
 0.25 0.5 0.25
 0 0.5 0.5
 0 1 0
 0 0.5 0.5
 0 0 1

27
 1 0 0
 0.5 0.5 0
 0 1 0
 0.5 0.5 0
 0.25 0.5 0.25
 0 0.5 0.5
 0 1 0
 0 0.5 0.5
 0 0 1

3
 0.25 0.5 0.25

27
 1 0 0
 0.5 0.5 0
 0 1 0
 0.5 0.5 0
 0.25 0.5 0.25
 0 0.5 0.5
 0 1 0
 0 0.5 0.5
 0 0 1

3
 0.25 0.5 0.25

27
 1 0 0
 0.5 0.5 0
 0 1 0
 0.5 0.5 0
 0.25 0.5 0.25
 0 0.5 0.5
 0 1 0
 0 0.5 0.5
 0 0 1

27
 1 0 0
 0.5 0.5 0
 0 1 0
 0.5 0.5 0
 0.25 0.5 0.25
 0 0.5 0.5
 0 1 0
 0 0.5 0.5
 0 0 1

3
 0.25 0.5 0.25

3
 0.25 0.5 0.25

27
 1 0 0
 0.5 0.5 0
 0 1 0
 0.5 0.5 0
 0.25 0.5 0.25
 0 0.5 0.5
 0 1 0
 0 0.5 0.5
 0 0 1

27
 1 0 0
 0.5 0.5 0
 0 1 0
 0.5 0.5 0
 0.25 0.5 0.25
 0 0.5 0.5
 0 1 0
 0 0.5 0.5
 0 0 1

27
 1 0 0
 0.5 0.5 0
 0 1 0
 0.5 0.5 0
 0.25 0.5 0.25
 0 0.5 0.5
 0 1 0
 0 0.5 0.5
 0 0 1

3
 0.25 0.5 0.25

27
 1 0 0
 0.5 0.5 0
 0 1 0
 0.5 0.5 0
 0.25 0.5 0.25
 0 0.5 0.5
 0 1 0
 0 0.5 0.5
 0 0 1

27
 1 0 0
 0.5 0.5 0
 0 1 0
 0.5 0.5 0
 0.25 0.5 0.25
 0 0.5 0.5
 0 1 0
 0 0.5 0.5
 0 0 1

27
 1 0 0
 0.5 0.5 0
 0 1 0
 0.5 0.5 0
 0.25 0.5 0.25
 0 0.5 0.5
 0 1 0
 0 0.5 0.5
 0 0 1

27
 1 0 0
 0.5 0.5 0
 0 1 0
 0.5 0.5 0
 0.25 0.5 0.25
 0 0.5 0.5
 0 1 0
 0 0.5 0.5
 0 0 1

27
 1 0 0
 0.5 0.5 0
 0 1 0
 0.5 0.5 0
 0.25 0.5 0.25
 0 0.5 0.5
 0 1 0
 0 0.5 0.5
 0 0 1

3
 0.25 0.5 0.25

3
 0.25 0.5 0.25

27
 1 0 0
 0.5 0.5 0
 0 1 0
 0.5 0.5 0
 0.25 0.5 0.25
 0 0.5 0.5
 0 1 0
 0 0.5 0.5
 0 0 1

27
 1 0 0
 0.5 0.5 0
 0 1 0
 0.5 0.5 0
 0.25 0.5 0.25
 0 0.5 0.5
 0 1 0
 0 0.5 0.5
 0 0 1

3
 0.25 0.5 0.25

3
 0.25 0.5 0.25

27
 1 0 0
 0.5 0.5 0
 0 1 0
 0.5 0.5 0
 0.25 0.5 0.25
 0 0.5 0.5
 0 1 0
 0 0.5 0.5
 0 0 1

27
 1 0 0
 0.5 0.5 0
 0 1 0
 0.5 0.5 0
 0.25 0.5 0.25
 0 0.5 0.5
 0 1 0
 0 0.5 0.5
 0 0 1

27
 1 0 0
 0.5 0.5 0
 0 1 0
 0.5 0.5 0
 0.25 0.5 0.25
 0 0.5 0.5
 0 1 0
 0 0.5 0.5
 0 0 1

3
 0.25 0.5 0.25

3
 0.25 0.5 0.25

27
 1 0 0
 0.5 0.5 0
 0 1 0
 0.5 0.5 0
 0.25 0.5 0.25
 0 0.5 0.5
 0 1 0
 0 0.5 0.5
 0 0 1

27
 1 0 0
 0.5 0.5 0
 0 1 0
 0.5 0.5 0
 0.25 0.5 0.25
 0 0.5 0.5
 0 1 0
 0 0.5 0.5
 0 0 1

27
 1 0 0
 0.5 0.5 0
 0 1 0
 0.5 0.5 0
 0.25 0.5 0.25
 0 0.5 0.5
 0 1 0
 0 0.5 0.5
 0 0 1

3
 0.25 0.5 0.25

3
 0.25 0.5 0.25

27
 1 0 0
 0.5 0.5 0
 0 1 0
 0.5 0.5 0
 0.25 0.5 0.25
 0 0.5 0.5
 0 1 0
 0 0.5 0.5
 0 0 1

3
 0.25 0.5 0.25

27
 1 0 0
 0.5 0.5 0
 0 1 0
 0.5 0.5 0
 0.25 0.5 0.25
 0 0.5 0.5
 0 1 0
 0 0.5 0.5
 0 0 1

27
 1 0 0
 0.5 0.5 0
 0 1 0
 0.5 0.5 0
 0.25 0.5 0.25
 0 0.5 0.5
 0 1 0
 0 0.5 0.5
 0 0 1

3
 0.25 0.5 0.25

27
 1 0 0
 0.5 0.5 0
 0 1 0
 0.5 0.5 0
 0.25 0.5 0.25
 0 0.5 0.5
 0 1 0
 0 0.5 0.5
 0 0 1

27
 1 0 0
 0.5 0.5 0
 0 1 0
 0.5 0.5 0
 0.25 0.5 0.25
 0 0.5 0.5
 0 1 0
 0 0.5 0.5
 0 0 1

27
 1 0 0
 0.5 0.5 0
 0 1 0
 0.5 0.5 0
 0.25 0.5 0.25
 0 0.5 0.5
 0 1 0
 0 0.5 0.5
 0 0 1

3
 0.25 0.5 0.25

27
 1 0 0
 0.5 0.5 0
 0 1 0
 0.5 0.5 0
 0.25 0.5 0.25
 0 0.5 0.5
 0 1 0
 0 0.5 0.5
 0 0 1

27
 1 0 0
 0.5 0.5 0
 0 1 0
 0.5 0.5 0
 0.25 0.5 0.25
 0 0.5 0.5
 0 1 0
 0 0.5 0.5
 0 0 1

27
 1 0 0
 0.5 0.5 0
 0 1 0
 0.5 0.5 0
 0.25 0.5 0.25
 0 0.5 0.5
 0 1 0
 0 0.5 0.5
 0 0 1

3
 0.25 0.5 0.25

27
 1 0 0
 0.5 0.5 0
 0 1 0
 0.5 0.5 0
 0.25 0.5 0.25
 0 0.5 0.5
 0 1 0
 0 0.5 0.5
 0 0 1

27
 1 0 0
 0.5 0.5 0
 0 1 0
 0.5 0.5 0
 0.25 0.5 0.25
 0 0.5 0.5
 0 1 0
 0 0.5 0.5
 0 0 1

27
 1 0 0
 0.5 0.5 0
 0 1 0
 0.5 0.5 0
 0.25 0.5 0.25
 0 0.5 0.5
 0 1 0
 0 0.5 0.5
 0 0 1

27
 1 0 0
 0.5 0.5 0
 0 1 0
 0.5 0.5 0
 0.25 0.5 0.25
 0 0.5 0.5
 0 1 0
 0 0.5 0.5
 0 0 1

3
 0.25 0.5 0.25

27
 1 0 0
 0.5 0.5 0
 0 1 0
 0.5 0.5 0
 0.25 0.5 0.25
 0 0.5 0.5
 0 1 0
 0 0.5 0.5
 0 0 1

27
 1 0 0
 0.5 0.5 0
 0 1 0
 0.5 0.5 0
 0.25 0.5 0.25
 0 0.5 0.5
 0 1 0
 0 0.5 0.5
 0 0 1

27
 1 0 0
 0.5 0.5 0
 0 1 0
 0.5 0.5 0
 0.25 0.5 0.25
 0 0.5 0.5
 0 1 0
 0 0.5 0.5
 0 0 1

27
 1 0 0
 0.5 0.5 0
 0 1 0
 0.5 0.5 0
 0.25 0.5 0.25
 0 0.5 0.5
 0 1 0
 0 0.5 0.5
 0 0 1

3
 0.25 0.5 0.25

27
 1 0 0
 0.5 0.5 0
 0 1 0
 0.5 0.5 0
 0.25 0.5 0.25
 0 0.5 0.5
 0 1 0
 0 0.5 0.5
 0 0 1

27
 1 0 0
 0.5 0.5 0
 0 1 0
 0.5 0.5 0
 0.25 0.5 0.25
 0 0.5 0.5
 0 1 0
 0 0.5 0.5
 0 0 1

27
 1 0 0
 0.5 0.5 0
 0 1 0
 0.5 0.5 0
 0.25 0.5 0.25
 0 0.5 0.5
 0 1 0
 0 0.5 0.5
 0 0 1

27
 1 0 0
 0.5 0.5 0
 0 1 0
 0.5 0.5 0
 0.25 0.5 0.25
 0 0.5 0.5
 0 1 0
 0 0.5 0.5
 0 0 1

27
 1 0 0
 0.5 0.5 0
 0 1 0
 0.5 0.5 0
 0.25 0.5 0.25
 0 0.5 0.5
 0 1 0
 0 0.5 0.5
 0 0 1

27
 1 0 0
 0.5 0.5 0
 0 1 0
 0.5 0.5 0
 0.25 0.5 0.25
 0 0.5 0.5
 0 1 0
 0 0.5 0.5
 0 0 1

27
 1 0 0
 0.5 0.5 0
 0 1 0
 0.5 0.5 0
 0.25 0.5 0.25
 0 0.5 0.5
 0 1 0
 0 0.5 0.5
 0 0 1

27
 1 0 0
 0.5 0.5 0
 0 1 0
 0.5 0.5 0
 0.25 0.5 0.25
 0 0.5 0.5
 0 1 0
 0 0.5 0.5
 0 0 1

27
 1 0 0
 0.5 0.5 0
 0 1 0
 0.5 0.5 0
 0.25 0.5 0.25
 0 0.5 0.5
 0 1 0
 0 0.5 0.5
 0 0 1

27
 1 0 0
 0.5 0.5 0
 0 1 0
 0.5 0.5 0
 0.25 0.5 0.25
 0 0.5 0.5
 0 1 0
 0 0.5 0.5
 0 0 1

27
 1 0 0
 0.5 0.5 0
 0 1 0
 0.5 0.5 0
 0.25 0.5 0.25
 0 0.5 0.5
 0 1 0
 0 0.5 0.5
 0 0 1

27
 1 0 0
 0.5 0.5 0
 0 1 0
 0.5 0.5 0
 0.25 0.5 0.25
 0 0.5 0.5
 0 1 0
 0 0.5 0.5
 0 0 1

3
 0.25 0.5 0.25

27
 1 0 0
 0.5 0.5 0
 0 1 0
 0.5 0.5 0
 0.25 0.5 0.25
 0 0.5 0.5
 0 1 0
 0 0.5 0.5
 0 0 1

3
 0.25 0.5 0.25

27
 1 0 0
 0.5 0.5 0
 0 1 0
 0.5 0.5 0
 0.25 0.5 0.25
 0 0.5 0.5
 0 1 0
 0 0.5 0.5
 0 0 1

27
 1 0 0
 0.5 0.5 0
 0 1 0
 0.5 0.5 0
 0.25 0.5 0.25
 0 0.5 0.5
 0 1 0
 0 0.5 0.5
 0 0 1

27
 1 0 0
 0.5 0.5 0
 0 1 0
 0.5 0.5 0
 0.25 0.5 0.25
 0 0.5 0.5
 0 1 0
 0 0.5 0.5
 0 0 1

27
 1 0 0
 0.5 0.5 0
 0 1 0
 0.5 0.5 0
 0.25 0.5 0.25
 0 0.5 0.5
 0 1 0
 0 0.5 0.5
 0 0 1

27
 1 0 0
 0.5 0.5 0
 0 1 0
 0.5 0.5 0
 0.25 0.5 0.25
 0 0.5 0.5
 0 1 0
 0 0.5 0.5
 0 0 1

27
 1 0 0
 0.5 0.5 0
 0 1 0
 0.5 0.5 0
 0.25 0.5 0.25
 0 0.5 0.5
 0 1 0
 0 0.5 0.5
 0 0 1

27
 1 0 0
 0.5 0.5 0
 0 1 0
 0.5 0.5 0
 0.25 0.5 0.25
 0 0.5 0.5
 0 1 0
 0 0.5 0.5
 0 0 1

3
 0.25 0.5 0.25

27
 1 0 0
 0.5 0.5 0
 0 1 0
 0.5 0.5 0
 0.25 0.5 0.25
 0 0.5 0.5
 0 1 0
 0 0.5 0.5
 0 0 1

3
 0.25 0.5 0.25

27
 1 0 0
 0.5 0.5 0
 0 1 0
 0.5 0.5 0
 0.25 0.5 0.25
 0 0.5 0.5
 0 1 0
 0 0.5 0.5
 0 0 1

27
 1 0 0
 0.5 0.5 0
 0 1 0
 0.5 0.5 0
 0.25 0.5 0.25
 0 0.5 0.5
 0 1 0
 0 0.5 0.5
 0 0 1

27
 1 0 0
 0.5 0.5 0
 0 1 0
 0.5 0.5 0
 0.25 0.5 0.25
 0 0.5 0.5
 0 1 0
 0 0.5 0.5
 0 0 1

27
 1 0 0
 0.5 0.5 0
 0 1 0
 0.5 0.5 0
 0.25 0.5 0.25
 0 0.5 0.5
 0 1 0
 0 0.5 0.5
 0 0 1

27
 1 0 0
 0.5 0.5 0
 0 1 0
 0.5 0.5 0
 0.25 0.5 0.25
 0 0.5 0.5
 0 1 0
 0 0.5 0.5
 0 0 1

3
 0.25 0.5 0.25

27
 1 0 0
 0.5 0.5 0
 0 1 0
 0.5 0.5 0
 0.25 0.5 0.25
 0 0.5 0.5
 0 1 0
 0 0.5 0.5
 0 0 1

27
 1 0 0
 0.5 0.5 0
 0 1 0
 0.5 0.5 0
 0.25 0.5 0.25
 0 0.5 0.5
 0 1 0
 0 0.5 0.5
 0 0 1

3
 0.25 0.5 0.25

27
 1 0 0
 0.5 0.5 0
 0 1 0
 0.5 0.5 0
 0.25 0.5 0.25
 0 0.5 0.5
 0 1 0
 0 0.5 0.5
 0 0 1

27
 1 0 0
 0.5 0.5 0
 0 1 0
 0.5 0.5 0
 0.25 0.5 0.25
 0 0.5 0.5
 0 1 0
 0 0.5 0.5
 0 0 1

27
 1 0 0
 0.5 0.5 0
 0 1 0
 0.5 0.5 0
 0.25 0.5 0.25
 0 0.5 0.5
 0 1 0
 0 0.5 0.5
 0 0 1

